p cnf 40 58
-1 2 4 7 8 9 10 11 12 13 14 15 16 23 24 26 35 0 
-2 1 4 7 8 9 10 11 12 13 14 15 16 23 24 26 35 0 
-2 1 4 7 8 9 10 11 12 13 14 15 16 23 24 26 36 0 
-3 37 0 
-4 1 2 7 8 9 10 11 12 13 14 15 16 23 24 26 38 0 
-5 37 0 
-3 35 0 
-3 36 0 
-5 38 0 
-6 17 18 19 30 32 39 0 
-7 1 2 4 8 9 10 11 12 13 14 15 16 23 24 26 36 0 
-7 1 2 4 8 9 10 11 12 13 14 15 16 23 24 26 35 0 
-8 1 2 4 7 9 10 11 12 13 14 15 16 23 24 26 38 0 
-9 1 2 4 7 8 10 11 12 13 14 15 16 23 24 26 35 0 
-8 1 2 4 7 9 10 11 12 13 14 15 16 23 24 26 35 0 
-10 1 2 4 7 8 9 11 12 13 14 15 16 23 24 26 35 0 
-8 1 2 4 7 9 10 11 12 13 14 15 16 23 24 26 36 0 
-10 1 2 4 7 8 9 11 12 13 14 15 16 23 24 26 36 0 
-9 1 2 4 7 8 10 11 12 13 14 15 16 23 24 26 36 0 
-11 1 2 4 7 8 9 10 12 13 14 15 16 23 24 26 36 0 
-12 1 2 4 7 8 9 10 11 13 14 15 16 23 24 26 36 0 
-13 1 2 4 7 8 9 10 11 12 14 15 16 23 24 26 36 0 
-11 1 2 4 7 8 9 10 12 13 14 15 16 23 24 26 35 0 
-12 1 2 4 7 8 9 10 11 13 14 15 16 23 24 26 38 0 
-13 1 2 4 7 8 9 10 11 12 14 15 16 23 24 26 35 0 
-14 1 2 4 7 8 9 10 11 12 13 15 16 23 24 26 35 0 
-12 1 2 4 7 8 9 10 11 13 14 15 16 23 24 26 35 0 
-15 1 2 4 7 8 9 10 11 12 13 14 16 23 24 26 35 0 
-4 1 2 7 8 9 10 11 12 13 14 15 16 23 24 26 35 0 
-16 1 2 4 7 8 9 10 11 12 13 14 15 23 24 26 35 0 
-4 1 2 7 8 9 10 11 12 13 14 15 16 23 24 26 36 0 
-17 6 18 19 30 32 35 0 
-18 6 17 19 30 32 35 0 
-19 6 17 18 30 32 35 0 
-20 37 0 
-21 35 0 
-21 38 0 
-22 37 0 
-5 36 0 
-3 39 0 
-23 1 2 4 7 8 9 10 11 12 13 14 15 16 24 26 36 0 
-24 1 2 4 7 8 9 10 11 12 13 14 15 16 23 26 36 0 
-1 2 4 7 8 9 10 11 12 13 14 15 16 23 24 26 36 0 
-24 1 2 4 7 8 9 10 11 12 13 14 15 16 23 26 35 0 
-23 1 2 4 7 8 9 10 11 12 13 14 15 16 24 26 35 0 
-25 37 0 
-26 1 2 4 7 8 9 10 11 12 13 14 15 16 23 24 35 0 
-27 40 0 
-28 31 40 0 
-29 -30 6 17 18 19 32 40 0 
-31 28 40 0 
-30 6 17 18 19 32 40 0 
-32 6 17 18 19 30 40 0 
-5 35 0 
-3 38 0 
-33 37 0 
-23 1 2 4 7 8 9 10 11 12 13 14 15 16 24 26 38 0 
-34 38 0 
